#######################



#######################
Set parameter TimeLimit to value 500
Set parameter SoftMemLimit to value 125
Set parameter LogFile to value 1003-MIPFocus0-Presolve1-TimeLimit500-k16x240-2.log
Set parameter Presolve to value 1
Set parameter Seed to value 12
Using license file /opt/gurobi/gurobi.lic

Gurobi Optimizer version 10.0.3 build v10.0.3rc0 (linux64)
Copyright (c) 2023, Gurobi Optimization, LLC

Read MPS format model from file /miplib2010/k16x240.mps.bz2
Reading time = 0.21 seconds
k16x240: 256 rows, 480 columns, 960 nonzeros

CPU model: Intel(R) Xeon(R) E-2388G CPU @ 3.20GHz, instruction set [SSE2|AVX|AVX2|AVX512]
Thread count: 8 physical cores, 16 logical processors, using up to 16 threads

Optimize a model with 256 rows, 480 columns and 960 nonzeros
Model fingerprint: 0x4e80885f
Variable types: 240 continuous, 240 integer (240 binary)
Coefficient statistics:
  Matrix range     [1e+00, 1e+03]
  Objective range  [1e+00, 1e+03]
  Bounds range     [1e+00, 1e+03]
  RHS range        [4e+00, 4e+02]
Found heuristic solution: objective 19617.000000
Presolve time: 0.02s
Presolved: 256 rows, 480 columns, 960 nonzeros
Variable types: 240 continuous, 240 integer (240 binary)

Root relaxation: objective 2.769838e+03, 51 iterations, 0.00 seconds (0.00 work units)

    Nodes    |    Current Node    |     Objective Bounds      |     Work
 Expl Unexpl |  Obj  Depth IntInf | Incumbent    BestBd   Gap | It/Node Time

     0     0 2769.83800    0   14 19617.0000 2769.83800  85.9%     -    0s
H    0     0                    11359.000000 2769.83800  75.6%     -    0s
H    0     0                    11195.000000 2769.83800  75.3%     -    0s
H    0     0                    11074.000000 8084.69631  27.0%     -    0s
     0     0 8084.69631    0   26 11074.0000 8084.69631  27.0%     -    0s
H    0     0                    10916.000000 8084.69631  25.9%     -    0s
     0     0 8528.16906    0   24 10916.0000 8528.16906  21.9%     -    0s
H    0     0                    10896.000000 8539.15185  21.6%     -    0s
     0     0 8539.15185    0   34 10896.0000 8539.15185  21.6%     -    0s
     0     0 8548.03675    0   29 10896.0000 8548.03675  21.5%     -    0s
H    0     0                    10806.000000 8731.06542  19.2%     -    0s
H    0     0                    10779.000000 8731.06542  19.0%     -    0s
     0     0 8731.06542    0   37 10779.0000 8731.06542  19.0%     -    0s
H    0     0                    10717.000000 8731.06542  18.5%     -    0s
     0     0 8793.93645    0   29 10717.0000 8793.93645  17.9%     -    0s
     0     0 8811.75933    0   32 10717.0000 8811.75933  17.8%     -    0s
     0     0 8817.74235    0   29 10717.0000 8817.74235  17.7%     -    0s
H    0     0                    10674.000000 8817.74235  17.4%     -    0s
     0     0 8890.92458    0   37 10674.0000 8890.92458  16.7%     -    0s
     0     0 8910.40168    0   38 10674.0000 8910.40168  16.5%     -    0s
     0     0 8916.83755    0   32 10674.0000 8916.83755  16.5%     -    0s
     0     0 9017.64805    0   28 10674.0000 9017.64805  15.5%     -    0s
     0     0 9034.15560    0   36 10674.0000 9034.15560  15.4%     -    0s
     0     0 9048.90359    0   40 10674.0000 9048.90359  15.2%     -    0s
     0     0 9050.54811    0   43 10674.0000 9050.54811  15.2%     -    0s
     0     0 9096.55433    0   41 10674.0000 9096.55433  14.8%     -    0s
     0     0 9096.55433    0   41 10674.0000 9096.55433  14.8%     -    0s
     0     2 9096.55433    0   41 10674.0000 9096.55433  14.8%     -    0s
 31782 12747 10524.4238   34    4 10674.0000 10015.7703  6.17%  24.4    5s
 65751 19712 10304.1363   31   19 10674.0000 10162.0440  4.80%  25.4   10s
 112549 21388 infeasible   36      10674.0000 10309.1507  3.42%  25.9   15s
 157473 15182 10670.2806   39   23 10674.0000 10436.5101  2.22%  25.7   20s

Cutting planes:
  Learned: 1
  Lift-and-project: 21
  Cover: 73
  Implied bound: 37
  MIR: 181
  Flow cover: 309
  Flow path: 55
  Inf proof: 3
  Zero half: 14
  Network: 57
  Relax-and-lift: 2

Explored 188643 nodes (4700584 simplex iterations) in 23.26 seconds (29.52 work units)
Thread count was 16 (of 16 available processors)

Solution count 10: 10674 10717 10779 ... 19617

Optimal solution found (tolerance 1.00e-04)
Best objective 1.067400000000e+04, best bound 1.067400000000e+04, gap 0.0000%
